peakDumbCharging = 14800; 
Machine = anon_enum(16); 
machineSpeed = [3700,3700,3700,3700,3700,3700,3700,3700,3700,3700,3700,3700,3700,3700,3700,3700]; 
machineLoad = [3700,3700,3700,3700,3700,3700,3700,3700,3700,3700,3700,3700,3700,3700,3700,3700]; 
Car = anon_enum(9); 
demandCar = [7360,19000,3560,8600,11040,15840,1120,17440,4320]; 
arrivalCar = [80,73,70,69,67,66,64,61,48]; 
departureCar = [84,80,73,74,73,74,65,68,52]; 
